33D32945 STP File, STP Format Version 1.0

SECTION Comments
Name "noctha_4"
Creator "Warren Smith"
Problem "Euclidean Steiner Tree Problem"
Remark "Converted automatically"
END

SECTION Graph
Nodes 8
END

SECTION Coordinates
DDDD 1 1.00000000000000 0.00000000000000 0.00000000000000 0.00000000000000 
DDDD 2 0.00000000000000 1.00000000000000 0.00000000000000 0.00000000000000 
DDDD 3 0.00000000000000 0.00000000000000 1.00000000000000 0.00000000000000 
DDDD 4 0.00000000000000 0.00000000000000 0.00000000000000 1.00000000000000 
DDDD 5 -1.00000000000000 0.00000000000000 0.00000000000000 0.00000000000000 
DDDD 6 0.00000000000000 -1.00000000000000 0.00000000000000 0.00000000000000 
DDDD 7 0.00000000000000 0.00000000000000 -1.00000000000000 0.00000000000000 
DDDD 8 0.00000000000000 0.00000000000000 0.00000000000000 -1.00000000000000 
END

EOF
